peakDumbCharging = 11100; 
Machine = anon_enum(16); 
machineSpeed = [3700,3700,3700,3700,3700,3700,3700,3700,3700,3700,3700,3700,3700,3700,3700,3700]; 
machineLoad = [3700,3700,3700,3700,3700,3700,3700,3700,3700,3700,3700,3700,3700,3700,3700,3700]; 
Car = anon_enum(7); 
demandCar = [12440,31560,10360,8160,7400,23200,38320]; 
arrivalCar = [72,71,65,64,64,54,35]; 
departureCar = [81,85,69,69,67,63,76]; 
